NAME:16_8
TYPE: TSP
DIMENSION: 16
EDGE_WEIGHT_TYPE: EXPLICIT
EDGE_WEIGHT_FORMAT: UPPER_ROW
EDGE_WEIGHT_SECTION
96 96 96 96 96 96 96 0 32 33 32 41 34 45 34 96 96 96 96 96 96 39 0 33 35 41 34 45 34 96 96 96 96 96 41 37 0 34 40 36 47 39 96 96 96 96 42 35 33 0 41 37 48 37 96 96 96 43 36 37 39 0 37 39 37 96 96 40 37 38 40 43 0 43 35 96 36 36 37 36 32 37 0 37 40 34 35 37 43 32 43 0 96 96 96 96 96 96 96 96 96 96 96 96 96 96 96 96 96 96 96 96 96 96 96 96 96 96 96 96 